Minimize
 obj: 0 X_0_1
Subject To
 out_0:
  + 1 X_0_1 + 1 X_0_2 + 1 X_0_3 + 1 X_0_4 + 1 X_0_5 + 1 X_0_6 + 1 X_0_7 + 1 X_0_8
  + 1 X_0_9
  = 1
 in_0:
  + 1 X_1_0 + 1 X_2_0 + 1 X_3_0 + 1 X_4_0 + 1 X_5_0 + 1 X_6_0 + 1 X_7_0 + 1 X_8_0
  + 1 X_9_0
  = 1
 out_1:
  + 1 X_1_0 + 1 X_1_2 + 1 X_1_3 + 1 X_1_4 + 1 X_1_5 + 1 X_1_6 + 1 X_1_7 + 1 X_1_8
  + 1 X_1_9
  = 1
 in_1:
  + 1 X_0_1 + 1 X_2_1 + 1 X_3_1 + 1 X_4_1 + 1 X_5_1 + 1 X_6_1 + 1 X_7_1 + 1 X_8_1
  + 1 X_9_1
  = 1
 out_2:
  + 1 X_2_0 + 1 X_2_1 + 1 X_2_3 + 1 X_2_4 + 1 X_2_5 + 1 X_2_6 + 1 X_2_7 + 1 X_2_8
  + 1 X_2_9
  = 1
 in_2:
  + 1 X_0_2 + 1 X_1_2 + 1 X_3_2 + 1 X_4_2 + 1 X_5_2 + 1 X_6_2 + 1 X_7_2 + 1 X_8_2
  + 1 X_9_2
  = 1
 out_3:
  + 1 X_3_0 + 1 X_3_1 + 1 X_3_2 + 1 X_3_4 + 1 X_3_5 + 1 X_3_6 + 1 X_3_7 + 1 X_3_8
  + 1 X_3_9
  = 1
 in_3:
  + 1 X_0_3 + 1 X_1_3 + 1 X_2_3 + 1 X_4_3 + 1 X_5_3 + 1 X_6_3 + 1 X_7_3 + 1 X_8_3
  + 1 X_9_3
  = 1
 out_4:
  + 1 X_4_0 + 1 X_4_1 + 1 X_4_2 + 1 X_4_3 + 1 X_4_5 + 1 X_4_6 + 1 X_4_7 + 1 X_4_8
  + 1 X_4_9
  = 1
 in_4:
  + 1 X_0_4 + 1 X_1_4 + 1 X_2_4 + 1 X_3_4 + 1 X_5_4 + 1 X_6_4 + 1 X_7_4 + 1 X_8_4
  + 1 X_9_4
  = 1
 out_5:
  + 1 X_5_0 + 1 X_5_1 + 1 X_5_2 + 1 X_5_3 + 1 X_5_4 + 1 X_5_6 + 1 X_5_7 + 1 X_5_8
  + 1 X_5_9
  = 1
 in_5:
  + 1 X_0_5 + 1 X_1_5 + 1 X_2_5 + 1 X_3_5 + 1 X_4_5 + 1 X_6_5 + 1 X_7_5 + 1 X_8_5
  + 1 X_9_5
  = 1
 out_6:
  + 1 X_6_0 + 1 X_6_1 + 1 X_6_2 + 1 X_6_3 + 1 X_6_4 + 1 X_6_5 + 1 X_6_7 + 1 X_6_8
  + 1 X_6_9
  = 1
 in_6:
  + 1 X_0_6 + 1 X_1_6 + 1 X_2_6 + 1 X_3_6 + 1 X_4_6 + 1 X_5_6 + 1 X_7_6 + 1 X_8_6
  + 1 X_9_6
  = 1
 out_7:
  + 1 X_7_0 + 1 X_7_1 + 1 X_7_2 + 1 X_7_3 + 1 X_7_4 + 1 X_7_5 + 1 X_7_6 + 1 X_7_8
  + 1 X_7_9
  = 1
 in_7:
  + 1 X_0_7 + 1 X_1_7 + 1 X_2_7 + 1 X_3_7 + 1 X_4_7 + 1 X_5_7 + 1 X_6_7 + 1 X_8_7
  + 1 X_9_7
  = 1
 out_8:
  + 1 X_8_0 + 1 X_8_1 + 1 X_8_2 + 1 X_8_3 + 1 X_8_4 + 1 X_8_5 + 1 X_8_6 + 1 X_8_7
  + 1 X_8_9
  = 1
 in_8:
  + 1 X_0_8 + 1 X_1_8 + 1 X_2_8 + 1 X_3_8 + 1 X_4_8 + 1 X_5_8 + 1 X_6_8 + 1 X_7_8
  + 1 X_9_8
  = 1
 out_9:
  + 1 X_9_0 + 1 X_9_1 + 1 X_9_2 + 1 X_9_3 + 1 X_9_4 + 1 X_9_5 + 1 X_9_6 + 1 X_9_7
  + 1 X_9_8
  = 1
 in_9:
  + 1 X_0_9 + 1 X_1_9 + 1 X_2_9 + 1 X_3_9 + 1 X_4_9 + 1 X_5_9 + 1 X_6_9 + 1 X_7_9
  + 1 X_8_9
  = 1
 mtz_1_2:
  + 1 U1 - 1 U2 + 9 X_1_2
  <= 8
 mtz_1_3:
  + 1 U1 - 1 U3 + 9 X_1_3
  <= 8
 mtz_1_4:
  + 1 U1 - 1 U4 + 9 X_1_4
  <= 8
 mtz_1_5:
  + 1 U1 - 1 U5 + 9 X_1_5
  <= 8
 mtz_1_6:
  + 1 U1 - 1 U6 + 9 X_1_6
  <= 8
 mtz_1_7:
  + 1 U1 - 1 U7 + 9 X_1_7
  <= 8
 mtz_1_8:
  + 1 U1 - 1 U8 + 9 X_1_8
  <= 8
 mtz_1_9:
  + 1 U1 - 1 U9 + 9 X_1_9
  <= 8
 mtz_2_1:
  + 1 U2 - 1 U1 + 9 X_2_1
  <= 8
 mtz_2_3:
  + 1 U2 - 1 U3 + 9 X_2_3
  <= 8
 mtz_2_4:
  + 1 U2 - 1 U4 + 9 X_2_4
  <= 8
 mtz_2_5:
  + 1 U2 - 1 U5 + 9 X_2_5
  <= 8
 mtz_2_6:
  + 1 U2 - 1 U6 + 9 X_2_6
  <= 8
 mtz_2_7:
  + 1 U2 - 1 U7 + 9 X_2_7
  <= 8
 mtz_2_8:
  + 1 U2 - 1 U8 + 9 X_2_8
  <= 8
 mtz_2_9:
  + 1 U2 - 1 U9 + 9 X_2_9
  <= 8
 mtz_3_1:
  + 1 U3 - 1 U1 + 9 X_3_1
  <= 8
 mtz_3_2:
  + 1 U3 - 1 U2 + 9 X_3_2
  <= 8
 mtz_3_4:
  + 1 U3 - 1 U4 + 9 X_3_4
  <= 8
 mtz_3_5:
  + 1 U3 - 1 U5 + 9 X_3_5
  <= 8
 mtz_3_6:
  + 1 U3 - 1 U6 + 9 X_3_6
  <= 8
 mtz_3_7:
  + 1 U3 - 1 U7 + 9 X_3_7
  <= 8
 mtz_3_8:
  + 1 U3 - 1 U8 + 9 X_3_8
  <= 8
 mtz_3_9:
  + 1 U3 - 1 U9 + 9 X_3_9
  <= 8
 mtz_4_1:
  + 1 U4 - 1 U1 + 9 X_4_1
  <= 8
 mtz_4_2:
  + 1 U4 - 1 U2 + 9 X_4_2
  <= 8
 mtz_4_3:
  + 1 U4 - 1 U3 + 9 X_4_3
  <= 8
 mtz_4_5:
  + 1 U4 - 1 U5 + 9 X_4_5
  <= 8
 mtz_4_6:
  + 1 U4 - 1 U6 + 9 X_4_6
  <= 8
 mtz_4_7:
  + 1 U4 - 1 U7 + 9 X_4_7
  <= 8
 mtz_4_8:
  + 1 U4 - 1 U8 + 9 X_4_8
  <= 8
 mtz_4_9:
  + 1 U4 - 1 U9 + 9 X_4_9
  <= 8
 mtz_5_1:
  + 1 U5 - 1 U1 + 9 X_5_1
  <= 8
 mtz_5_2:
  + 1 U5 - 1 U2 + 9 X_5_2
  <= 8
 mtz_5_3:
  + 1 U5 - 1 U3 + 9 X_5_3
  <= 8
 mtz_5_4:
  + 1 U5 - 1 U4 + 9 X_5_4
  <= 8
 mtz_5_6:
  + 1 U5 - 1 U6 + 9 X_5_6
  <= 8
 mtz_5_7:
  + 1 U5 - 1 U7 + 9 X_5_7
  <= 8
 mtz_5_8:
  + 1 U5 - 1 U8 + 9 X_5_8
  <= 8
 mtz_5_9:
  + 1 U5 - 1 U9 + 9 X_5_9
  <= 8
 mtz_6_1:
  + 1 U6 - 1 U1 + 9 X_6_1
  <= 8
 mtz_6_2:
  + 1 U6 - 1 U2 + 9 X_6_2
  <= 8
 mtz_6_3:
  + 1 U6 - 1 U3 + 9 X_6_3
  <= 8
 mtz_6_4:
  + 1 U6 - 1 U4 + 9 X_6_4
  <= 8
 mtz_6_5:
  + 1 U6 - 1 U5 + 9 X_6_5
  <= 8
 mtz_6_7:
  + 1 U6 - 1 U7 + 9 X_6_7
  <= 8
 mtz_6_8:
  + 1 U6 - 1 U8 + 9 X_6_8
  <= 8
 mtz_6_9:
  + 1 U6 - 1 U9 + 9 X_6_9
  <= 8
 mtz_7_1:
  + 1 U7 - 1 U1 + 9 X_7_1
  <= 8
 mtz_7_2:
  + 1 U7 - 1 U2 + 9 X_7_2
  <= 8
 mtz_7_3:
  + 1 U7 - 1 U3 + 9 X_7_3
  <= 8
 mtz_7_4:
  + 1 U7 - 1 U4 + 9 X_7_4
  <= 8
 mtz_7_5:
  + 1 U7 - 1 U5 + 9 X_7_5
  <= 8
 mtz_7_6:
  + 1 U7 - 1 U6 + 9 X_7_6
  <= 8
 mtz_7_8:
  + 1 U7 - 1 U8 + 9 X_7_8
  <= 8
 mtz_7_9:
  + 1 U7 - 1 U9 + 9 X_7_9
  <= 8
 mtz_8_1:
  + 1 U8 - 1 U1 + 9 X_8_1
  <= 8
 mtz_8_2:
  + 1 U8 - 1 U2 + 9 X_8_2
  <= 8
 mtz_8_3:
  + 1 U8 - 1 U3 + 9 X_8_3
  <= 8
 mtz_8_4:
  + 1 U8 - 1 U4 + 9 X_8_4
  <= 8
 mtz_8_5:
  + 1 U8 - 1 U5 + 9 X_8_5
  <= 8
 mtz_8_6:
  + 1 U8 - 1 U6 + 9 X_8_6
  <= 8
 mtz_8_7:
  + 1 U8 - 1 U7 + 9 X_8_7
  <= 8
 mtz_8_9:
  + 1 U8 - 1 U9 + 9 X_8_9
  <= 8
 mtz_9_1:
  + 1 U9 - 1 U1 + 9 X_9_1
  <= 8
 mtz_9_2:
  + 1 U9 - 1 U2 + 9 X_9_2
  <= 8
 mtz_9_3:
  + 1 U9 - 1 U3 + 9 X_9_3
  <= 8
 mtz_9_4:
  + 1 U9 - 1 U4 + 9 X_9_4
  <= 8
 mtz_9_5:
  + 1 U9 - 1 U5 + 9 X_9_5
  <= 8
 mtz_9_6:
  + 1 U9 - 1 U6 + 9 X_9_6
  <= 8
 mtz_9_7:
  + 1 U9 - 1 U7 + 9 X_9_7
  <= 8
 mtz_9_8:
  + 1 U9 - 1 U8 + 9 X_9_8
  <= 8
 obj1:
  + 539 X_0_1 + 405 X_0_2 + 221 X_0_3 + 328 X_0_4 + 723 X_0_5 + 460 X_0_6 + 371 X_0_7 + 403 X_0_8
  + 356 X_0_9 + 539 X_1_0 + 154 X_1_2 + 377 X_1_3 + 735 X_1_4 + 286 X_1_5 + 82 X_1_6 + 857 X_1_7
  + 195 X_1_8 + 263 X_1_9 + 405 X_2_0 + 154 X_2_1 + 224 X_2_3 + 580 X_2_4 + 333 X_2_5 + 106 X_2_6
  + 705 X_2_7 + 187 X_2_8 + 114 X_2_9 + 221 X_3_0 + 377 X_3_1 + 224 X_3_2 + 360 X_3_4 + 511 X_3_5
  + 313 X_3_6 + 480 X_3_7 + 318 X_3_8 + 142 X_3_9 + 328 X_4_0 + 735 X_4_1 + 580 X_4_2 + 360 X_4_3
  + 812 X_4_5 + 673 X_4_6 + 164 X_4_7 + 666 X_4_8 + 478 X_4_9 + 723 X_5_0 + 286 X_5_1 + 333 X_5_2
  + 511 X_5_3 + 812 X_5_4 + 347 X_5_6 + 963 X_5_7 + 472 X_5_8 + 369 X_5_9 + 460 X_6_0 + 82 X_6_1
  + 106 X_6_2 + 313 X_6_3 + 673 X_6_4 + 347 X_6_5 + 787 X_6_7 + 124 X_6_8 + 219 X_6_9 + 371 X_7_0
  + 857 X_7_1 + 705 X_7_2 + 480 X_7_3 + 164 X_7_4 + 963 X_7_5 + 787 X_7_6 + 759 X_7_8 + 613 X_7_9
  + 403 X_8_0 + 195 X_8_1 + 187 X_8_2 + 318 X_8_3 + 666 X_8_4 + 472 X_8_5 + 124 X_8_6 + 759 X_8_7
  + 278 X_8_9 + 356 X_9_0 + 263 X_9_1 + 114 X_9_2 + 142 X_9_3 + 478 X_9_4 + 369 X_9_5 + 219 X_9_6
  + 613 X_9_7 + 278 X_9_8
  <= 1
 obj2:
  + 485 X_0_1 + 502 X_0_2 + 580 X_0_3 + 488 X_0_4 + 568 X_0_5 + 682 X_0_6 + 683 X_0_7 + 230 X_0_8
  + 538 X_0_9 + 485 X_1_0 + 514 X_1_2 + 395 X_1_3 + 75 X_1_4 + 733 X_1_5 + 269 X_1_6 + 753 X_1_7
  + 714 X_1_8 + 505 X_1_9 + 502 X_2_0 + 514 X_2_1 + 861 X_2_3 + 449 X_2_4 + 241 X_2_5 + 477 X_2_6
  + 240 X_2_7 + 657 X_2_8 + 50 X_2_9 + 580 X_3_0 + 395 X_3_1 + 861 X_3_2 + 469 X_3_4 + 1042 X_3_5
  + 644 X_3_6 + 1099 X_3_7 + 753 X_3_8 + 865 X_3_9 + 488 X_4_0 + 75 X_4_1 + 449 X_4_2 + 469 X_4_3
  + 674 X_4_5 + 216 X_4_6 + 686 X_4_7 + 718 X_4_8 + 436 X_4_9 + 568 X_5_0 + 733 X_5_1 + 241 X_5_2
  + 1042 X_5_3 + 674 X_5_4 + 718 X_5_6 + 153 X_5_7 + 643 X_5_8 + 278 X_5_9 + 682 X_6_0 + 269 X_6_1
  + 477 X_6_2 + 644 X_6_3 + 216 X_6_4 + 718 X_6_5 + 682 X_6_7 + 908 X_6_8 + 443 X_6_9 + 683 X_7_0
  + 753 X_7_1 + 240 X_7_2 + 1099 X_7_3 + 686 X_7_4 + 153 X_7_5 + 682 X_7_6 + 784 X_7_8 + 250 X_7_9
  + 230 X_8_0 + 714 X_8_1 + 657 X_8_2 + 753 X_8_3 + 718 X_8_4 + 643 X_8_5 + 908 X_8_6 + 784 X_8_7
  + 701 X_8_9 + 538 X_9_0 + 505 X_9_1 + 50 X_9_2 + 865 X_9_3 + 436 X_9_4 + 278 X_9_5 + 443 X_9_6
  + 250 X_9_7 + 701 X_9_8
  <= 2
 obj3:
  + 637 X_0_1 + 179 X_0_2 + 281 X_0_3 + 438 X_0_4 + 633 X_0_5 + 657 X_0_6 + 505 X_0_7 + 784 X_0_8
  + 584 X_0_9 + 637 X_1_0 + 663 X_1_2 + 613 X_1_3 + 644 X_1_4 + 478 X_1_5 + 469 X_1_6 + 498 X_1_7
  + 250 X_1_8 + 52 X_1_9 + 179 X_2_0 + 663 X_2_1 + 455 X_2_3 + 275 X_2_4 + 525 X_2_5 + 553 X_2_6
  + 653 X_2_7 + 754 X_2_8 + 613 X_2_9 + 281 X_3_0 + 613 X_3_1 + 455 X_3_2 + 684 X_3_4 + 799 X_3_5
  + 816 X_3_6 + 266 X_3_7 + 827 X_3_8 + 565 X_3_9 + 438 X_4_0 + 644 X_4_1 + 275 X_4_2 + 684 X_4_3
  + 311 X_4_5 + 343 X_4_6 + 821 X_4_7 + 638 X_4_8 + 606 X_4_9 + 633 X_5_0 + 478 X_5_1 + 525 X_5_2
  + 799 X_5_3 + 311 X_5_4 + 31 X_5_6 + 839 X_5_7 + 370 X_5_8 + 462 X_5_9 + 657 X_6_0 + 469 X_6_1
  + 553 X_6_2 + 816 X_6_3 + 343 X_6_4 + 31 X_6_5 + 847 X_6_7 + 346 X_6_8 + 456 X_6_9 + 505 X_7_0
  + 498 X_7_1 + 653 X_7_2 + 266 X_7_3 + 821 X_7_4 + 839 X_7_5 + 847 X_7_6 + 745 X_7_8 + 466 X_7_9
  + 784 X_8_0 + 250 X_8_1 + 754 X_8_2 + 827 X_8_3 + 638 X_8_4 + 370 X_8_5 + 346 X_8_6 + 745 X_8_7
  + 279 X_8_9 + 584 X_9_0 + 52 X_9_1 + 613 X_9_2 + 565 X_9_3 + 606 X_9_4 + 462 X_9_5 + 456 X_9_6
  + 466 X_9_7 + 279 X_9_8
  <= 3
Bounds
 1 <= U1 <= 9
 1 <= U2 <= 9
 1 <= U3 <= 9
 1 <= U4 <= 9
 1 <= U5 <= 9
 1 <= U6 <= 9
 1 <= U7 <= 9
 1 <= U8 <= 9
 1 <= U9 <= 9
Binary
 X_0_1
 X_0_2
 X_0_3
 X_0_4
 X_0_5
 X_0_6
 X_0_7
 X_0_8
 X_0_9
 X_1_0
 X_1_2
 X_1_3
 X_1_4
 X_1_5
 X_1_6
 X_1_7
 X_1_8
 X_1_9
 X_2_0
 X_2_1
 X_2_3
 X_2_4
 X_2_5
 X_2_6
 X_2_7
 X_2_8
 X_2_9
 X_3_0
 X_3_1
 X_3_2
 X_3_4
 X_3_5
 X_3_6
 X_3_7
 X_3_8
 X_3_9
 X_4_0
 X_4_1
 X_4_2
 X_4_3
 X_4_5
 X_4_6
 X_4_7
 X_4_8
 X_4_9
 X_5_0
 X_5_1
 X_5_2
 X_5_3
 X_5_4
 X_5_6
 X_5_7
 X_5_8
 X_5_9
 X_6_0
 X_6_1
 X_6_2
 X_6_3
 X_6_4
 X_6_5
 X_6_7
 X_6_8
 X_6_9
 X_7_0
 X_7_1
 X_7_2
 X_7_3
 X_7_4
 X_7_5
 X_7_6
 X_7_8
 X_7_9
 X_8_0
 X_8_1
 X_8_2
 X_8_3
 X_8_4
 X_8_5
 X_8_6
 X_8_7
 X_8_9
 X_9_0
 X_9_1
 X_9_2
 X_9_3
 X_9_4
 X_9_5
 X_9_6
 X_9_7
 X_9_8
End
